

























































































4 42 50 
58 5 18 
26 33 76 
66 27 29 
7 10 14 
59 48 75 
30 3 61 
52 45 31 
63 49 23 
36 74 53 
56 15 68 2 
12 55 57 6 
47 34 46 
73 16 17 
37 24 0 72 
21 40 32 
20 19 62 
41 39 38 
11 70 71 
35 8 13 
51 65 9 
67 25 28 
44 64 22 
54 69 43 
1 60 
